#===============================================================================
# Created using the Atomic Simulation Environment (ASE)

# Fri Sep 20 14:44:08 2024

#=======================================================
lattice_vector 1.0000000000000000 0.0000000000000000 0.0000000000000000 
lattice_vector 0.0000000000000000 1.0000000000000000 0.0000000000000000 
lattice_vector 0.0000000000000000 0.0000000000000000 1.0000000000000000 
atom 0.0000000000000000 0.0000000000000000 0.0000000000000000 Cs
atom 0.5000000000000000 0.5000000000000000 0.5000000000000000 Cl
